Cost: 1303
0-1-9-33-27-28-3-24-4-29-30-5-8-11-10-47-25-0
0-41-43-42-22-40-20-37-38-18-12-32-13-34-35-14-15-16-45-21-0
Cost: 1303
0-26-1-9-33-27-28-3-24-4-29-30-6-8-11-10-47-0
0-22-41-43-42-20-37-38-18-12-32-13-34-35-14-15-16-45-39-21-0
Cost: 1303
0-1-9-33-27-28-3-24-4-29-30-5-8-11-10-47-25-0
0-41-43-42-22-40-20-37-38-18-12-32-13-34-35-14-15-16-45-21-0
Cost: 1303
0-1-9-33-27-28-3-24-4-29-30-5-8-11-10-47-25-0
0-41-43-42-22-40-20-37-38-18-12-32-13-34-35-14-15-16-45-21-0
Cost: 1303
0-26-1-9-33-27-28-3-24-4-29-30-6-8-11-10-47-0
0-22-41-43-42-20-38-37-18-12-32-13-34-35-14-15-16-45-39-21-0
Cost: 1303
0-26-1-9-33-27-28-3-24-4-29-30-5-8-11-10-47-0
0-41-43-42-22-20-38-37-18-12-32-13-34-35-14-15-16-45-39-21-0
Cost: 1303
0-1-9-33-27-28-3-24-4-29-30-6-8-11-10-47-25-0
0-41-43-42-22-40-20-37-38-18-12-32-13-34-35-14-15-16-45-21-0
Cost: 1303
0-41-43-42-22-20-37-38-18-12-32-13-34-35-14-15-16-45-39-21-0
0-26-1-9-33-27-28-3-24-4-29-30-6-8-11-10-47-0
Cost: 1303
0-41-43-42-22-20-37-38-18-12-32-13-34-35-14-15-16-45-39-21-0
0-26-1-9-33-27-28-3-24-4-29-30-6-8-11-10-47-0
Cost: 1303
0-41-43-42-22-20-37-38-18-12-32-13-34-35-14-15-16-45-39-21-0
0-26-1-9-33-27-28-3-24-4-29-30-6-8-11-10-47-0
Cost: 1303
0-41-43-42-22-20-37-38-18-12-32-13-34-35-14-15-16-45-39-21-0
0-26-1-9-33-27-28-3-24-4-29-30-6-8-11-10-47-0
Cost: 1303
0-26-1-9-33-27-28-3-24-4-29-30-6-8-11-10-47-0
0-22-41-43-42-20-37-38-18-12-32-13-34-35-14-15-16-45-39-21-0
Cost: 1303
0-26-1-9-33-27-28-3-24-4-29-30-6-8-11-10-47-0
0-22-41-43-42-20-37-38-18-12-32-13-34-35-14-15-16-45-39-21-0
Cost: 1303
0-26-1-9-33-27-28-3-24-4-29-30-6-8-11-10-47-0
0-22-41-43-42-20-37-38-18-12-32-13-34-35-14-15-16-45-39-21-0
Cost: 1303
0-26-1-9-33-27-28-3-24-4-29-30-6-8-11-10-47-0
0-22-41-43-42-20-37-38-18-12-32-13-34-35-14-15-16-45-39-21-0
Cost: 1303
0-26-1-9-33-27-28-3-24-4-29-30-6-8-11-10-47-0
0-22-41-43-42-20-37-38-18-12-32-13-34-35-14-15-16-45-39-21-0
Cost: 1303
0-26-1-9-33-27-28-3-24-4-29-30-6-8-11-10-47-0
0-22-41-43-42-20-37-38-18-12-32-13-34-35-14-15-16-45-39-21-0
Cost: 1303
0-26-1-9-33-27-28-3-24-4-29-30-6-8-11-10-47-0
0-41-43-42-22-40-20-37-38-18-12-32-13-34-35-14-15-16-45-21-0
Cost: 1303
0-26-1-9-33-27-28-3-24-4-29-30-6-8-11-10-47-0
0-22-41-43-42-20-37-38-18-12-32-13-34-35-14-15-16-45-39-21-0
Cost: 1303
0-26-1-9-33-27-28-3-24-4-29-30-6-8-11-10-47-0
0-22-41-43-42-20-37-38-18-12-32-13-34-35-14-15-16-45-39-21-0
Cost: 1303
0-26-1-9-33-27-28-3-24-4-29-30-6-8-11-10-47-0
0-22-41-43-42-20-37-38-18-12-32-13-34-35-14-15-16-45-39-21-0
Cost: 1303
0-26-1-9-33-27-28-3-24-4-29-30-6-8-11-10-47-0
0-22-41-43-42-20-37-38-18-12-32-13-34-35-14-15-16-45-39-21-0
Cost: 1303
0-26-1-9-33-27-28-3-24-4-29-30-6-8-11-10-47-0
0-22-41-43-42-20-37-38-18-12-32-13-34-35-14-15-16-45-39-21-0
Cost: 1303
0-26-1-9-33-27-28-3-24-4-29-30-6-8-11-10-47-0
0-22-41-43-42-20-37-38-18-12-32-13-34-35-14-15-16-45-39-21-0
Cost: 1303
0-26-1-9-33-27-28-3-24-4-29-30-6-8-11-10-47-0
0-22-41-43-42-20-37-38-18-12-32-13-34-35-14-15-16-45-39-21-0
Cost: 1303
0-41-43-42-22-40-20-37-38-18-12-32-13-34-35-14-15-16-45-21-0
0-1-9-33-27-28-3-24-4-29-30-6-8-11-10-47-25-0
Cost: 1303
0-26-1-9-33-27-28-3-24-4-29-30-6-8-11-10-47-0
0-22-41-43-42-20-37-38-18-12-32-13-34-35-14-15-16-45-39-21-0
Cost: 1303
0-26-1-9-33-27-28-3-24-4-29-30-6-8-11-10-47-0
0-22-41-43-42-20-37-38-18-12-32-13-34-35-14-15-16-45-39-21-0
Cost: 1303
0-26-1-9-33-27-28-3-24-4-29-30-6-8-11-10-47-0
0-22-41-43-42-20-37-38-18-12-32-13-34-35-14-15-16-45-39-21-0
Cost: 1303
0-26-1-9-33-27-28-3-24-4-29-30-6-8-11-10-47-0
0-22-41-43-42-20-37-38-18-12-32-13-34-35-14-15-16-45-39-21-0
Cost: 1303
0-22-41-43-42-20-37-38-18-12-32-13-34-35-14-15-16-45-39-21-0
0-26-1-9-33-27-28-3-24-4-29-30-5-8-11-10-47-0
Cost: 1303
0-41-43-42-22-20-38-37-17-12-32-13-34-35-14-15-16-45-39-21-0
0-1-9-33-27-28-3-24-4-29-30-6-8-11-10-47-25-0
Cost: 1303
0-41-43-42-22-20-38-37-17-12-32-13-34-35-14-15-16-45-39-21-0
0-26-1-9-33-27-28-3-24-4-29-30-6-8-11-10-47-0
Cost: 1303
0-1-9-33-27-28-3-24-4-29-30-6-8-11-10-47-25-0
0-22-41-43-42-40-20-37-38-17-12-32-13-34-35-14-15-16-45-21-0
Cost: 1303
0-1-9-33-27-28-3-24-4-29-30-5-8-11-10-47-25-0
0-22-41-43-42-20-37-38-18-12-32-13-34-35-14-15-16-45-21-40-0
